decision_x1=[0,4];
decision_x2=[0,4];
decision_x3=[0,4];
decision_x4=[0,4];
decision_x5=[0,4];
decision_x6=[0,4];
decision_x7=[0,4];
decision_x8=[0,4];
decision_x9=[0,4];
decision_x10=[0,4];
decision_x11=[0,4];
decision_x12=[0,4];
decision_x13=[0,4];
decision_x14=[0,4];
random_y1=[0,4];
random_y2=[0,4];
random_y3=[0,4];
random_y4=[0,4];
random_y5=[0,4];
random_y6=[0,4];
random_y7=[0,4];
constraint_x3_x2=[
0,1,7.8|
0,2,5.9|
0,3,2.3|
0,4,0.53|
1,0,0.49|
1,2,7.9|
1,3,9.6|
1,4,7.7|
2,0,3.2|
2,1,1.4|
2,3,0.49|
2,4,5.8|
3,0,10|
3,1,3.2|
3,2,7.7|
3,4,6|
4,0,6.6|
4,1,3.5|
4,2,0.75|
4,3,6.5|
];
constraint_x4_x2=[
0,1,1.5|
0,2,0.99|
0,3,6.7|
0,4,2.7|
1,0,0.7|
1,2,1.6|
1,3,2.2|
1,4,4.2|
2,0,7.3|
2,1,1.7|
2,3,7.6|
2,4,7.7|
3,0,4.2|
3,1,2.1|
3,2,4.7|
3,4,3.3|
4,0,5.5|
4,1,2.5|
4,2,5.9|
4,3,9.8|
];
constraint_x4_x3=[
0,1,2|
0,2,9.4|
0,3,6.9|
0,4,0.92|
1,0,1.3|
1,2,0.23|
1,3,0.046|
1,4,5|
2,0,1.1|
2,1,0.17|
2,3,6|
2,4,4.9|
3,0,1.9|
3,1,9.2|
3,2,9.4|
3,4,0.46|
4,0,6.5|
4,1,8.8|
4,2,1.8|
4,3,3.7|
];
constraint_x5_x1=[
0,1,1.4|
0,2,3|
0,3,0.22|
0,4,0.78|
1,0,4.5|
1,2,6.2|
1,3,3.6|
1,4,4.3|
2,0,10|
2,1,6.9|
2,3,0.73|
2,4,6|
3,0,3.1|
3,1,0.95|
3,2,2.2|
3,4,9.5|
4,0,3.3|
4,1,3.1|
4,2,4.8|
4,3,5.2|
];
constraint_x5_x4=[
0,1,7.2|
0,2,4.8|
0,3,8.1|
0,4,4.3|
1,0,4.1|
1,2,1.1|
1,3,1.2|
1,4,7.3|
2,0,7.6|
2,1,0.81|
2,3,6|
2,4,0.7|
3,0,4.8|
3,1,2.3|
3,2,4.4|
3,4,6.6|
4,0,3.4|
4,1,2.4|
4,2,6.7|
4,3,8.7|
];
constraint_x6_x2=[
0,1,5.6|
0,2,5|
0,3,6.1|
0,4,3.4|
1,0,1.9|
1,2,6.6|
1,3,8.4|
1,4,4.5|
2,0,2.2|
2,1,7.4|
2,3,10|
2,4,8.6|
3,0,3.3|
3,1,2.4|
3,2,5.9|
3,4,0.36|
4,0,0.17|
4,1,5.8|
4,2,8.7|
4,3,2|
];
constraint_x7_x1=[
0,1,0.75|
0,2,6.2|
0,3,3.9|
0,4,8.4|
1,0,2.6|
1,2,0.64|
1,3,2|
1,4,7.6|
2,0,1.6|
2,1,5.6|
2,3,5.1|
2,4,4.6|
3,0,4.3|
3,1,9.2|
3,2,2.4|
3,4,2.9|
4,0,0.74|
4,1,5.2|
4,2,5.4|
4,3,7.9|
];
constraint_x7_x2=[
0,1,5.6|
0,2,7.3|
0,3,6.8|
0,4,2.2|
1,0,8.7|
1,2,6.3|
1,3,7.3|
1,4,9.5|
2,0,6.8|
2,1,4.5|
2,3,6.2|
2,4,8.2|
3,0,8.5|
3,1,7.8|
3,2,5.3|
3,4,9.3|
4,0,3.1|
4,1,3|
4,2,1.1|
4,3,7.4|
];
constraint_x7_x3=[
0,1,5.9|
0,2,7.6|
0,3,4|
0,4,9.6|
1,0,2.5|
1,2,6.8|
1,3,6.2|
1,4,3.6|
2,0,0.065|
2,1,6.4|
2,3,9.9|
2,4,1.2|
3,0,1.2|
3,1,1.3|
3,2,1.1|
3,4,4.5|
4,0,6.1|
4,1,5.5|
4,2,0.12|
4,3,2.6|
];
constraint_x7_x4=[
0,1,4.7|
0,2,4.9|
0,3,4.9|
0,4,5.5|
1,0,9.4|
1,2,9.2|
1,3,7.1|
1,4,6.3|
2,0,0.31|
2,1,8.9|
2,3,6.4|
2,4,9.7|
3,0,0.67|
3,1,2.5|
3,2,1.4|
3,4,7.1|
4,0,5.3|
4,1,6.6|
4,2,7.4|
4,3,5.6|
];
constraint_x7_x5=[
0,1,0.41|
0,2,4.6|
0,3,3.9|
0,4,0.36|
1,0,2.1|
1,2,8.8|
1,3,1.7|
1,4,7.3|
2,0,5.9|
2,1,5.8|
2,3,6.5|
2,4,6.9|
3,0,6.3|
3,1,3.2|
3,2,8.7|
3,4,0.12|
4,0,4.5|
4,1,0.6|
4,2,9.3|
4,3,6.2|
];
constraint_x8_x1=[
0,1,1.1|
0,2,0.063|
0,3,3.1|
0,4,2.8|
1,0,3|
1,2,5.4|
1,3,8.9|
1,4,3.5|
2,0,0.64|
2,1,8|
2,3,0.82|
2,4,0.086|
3,0,5.5|
3,1,8|
3,2,3.9|
3,4,6.8|
4,0,3.2|
4,1,1.2|
4,2,6.2|
4,3,9.2|
];
constraint_x8_x3=[
0,1,1.9|
0,2,4.9|
0,3,2.8|
0,4,1.3|
1,0,0.54|
1,2,3.7|
1,3,5.2|
1,4,9.1|
2,0,9.2|
2,1,7.4|
2,3,7.4|
2,4,4.5|
3,0,3.7|
3,1,5|
3,2,5.6|
3,4,7.6|
4,0,8.5|
4,1,0.8|
4,2,4.7|
4,3,8.1|
];
constraint_x8_x5=[
0,1,8.4|
0,2,9.8|
0,3,2.4|
0,4,5.2|
1,0,4.5|
1,2,4.3|
1,3,0.9|
1,4,0.96|
2,0,4.1|
2,1,6|
2,3,7.5|
2,4,5.6|
3,0,5.9|
3,1,2.9|
3,2,0.42|
3,4,4.8|
4,0,0.05|
4,1,0.62|
4,2,1.8|
4,3,1.1|
];
constraint_x9_x1=[
0,1,9.1|
0,2,4.5|
0,3,2.5|
0,4,3.6|
1,0,4.1|
1,2,0.56|
1,3,7.6|
1,4,0.19|
2,0,6.4|
2,1,9.1|
2,3,2.5|
2,4,1|
3,0,3|
3,1,2.8|
3,2,9.2|
3,4,7|
4,0,0.56|
4,1,1.4|
4,2,7.3|
4,3,3.7|
];
constraint_x9_x2=[
0,1,7.2|
0,2,0.65|
0,3,3.4|
0,4,8.7|
1,0,0.0083|
1,2,0.55|
1,3,8.7|
1,4,0.43|
2,0,6.4|
2,1,1.1|
2,3,3.9|
2,4,4.6|
3,0,6.2|
3,1,5.5|
3,2,7.4|
3,4,8.6|
4,0,6.5|
4,1,7.2|
4,2,3.3|
4,3,9.1|
];
constraint_x9_x3=[
0,1,5.4|
0,2,4.3|
0,3,9.2|
0,4,7.8|
1,0,1.2|
1,2,5.8|
1,3,0.11|
1,4,8.3|
2,0,5.7|
2,1,9.5|
2,3,7.6|
2,4,5.8|
3,0,0.88|
3,1,5.3|
3,2,3.4|
3,4,5.4|
4,0,4.5|
4,1,1.3|
4,2,3.1|
4,3,8.1|
];
constraint_x9_x6=[
0,1,0.62|
0,2,2.2|
0,3,1.7|
0,4,1.8|
1,0,4.2|
1,2,0.26|
1,3,5.1|
1,4,2.8|
2,0,6.6|
2,1,7.6|
2,3,0.12|
2,4,5.5|
3,0,0.26|
3,1,0.87|
3,2,4.8|
3,4,7.4|
4,0,9.7|
4,1,1.5|
4,2,6.3|
4,3,5.4|
];
constraint_x10_x1=[
0,1,2.4|
0,2,9.6|
0,3,2.5|
0,4,0.0031|
1,0,9.5|
1,2,5.8|
1,3,3|
1,4,6.2|
2,0,1.2|
2,1,2.1|
2,3,7.3|
2,4,3.2|
3,0,7.2|
3,1,9.2|
3,2,8.2|
3,4,3.6|
4,0,8.4|
4,1,7.6|
4,2,4.4|
4,3,9.4|
];
constraint_x10_x2=[
0,1,4.4|
0,2,6.4|
0,3,3.9|
0,4,6.7|
1,0,0.27|
1,2,5.6|
1,3,3.6|
1,4,1.5|
2,0,9.9|
2,1,2.3|
2,3,4|
2,4,0.9|
3,0,7.4|
3,1,9.5|
3,2,9.2|
3,4,5.7|
4,0,2.1|
4,1,6.2|
4,2,7.4|
4,3,8.1|
];
constraint_x10_x3=[
0,1,4.8|
0,2,7.7|
0,3,9.6|
0,4,4.6|
1,0,4.5|
1,2,9|
1,3,6.6|
1,4,1.7|
2,0,1.9|
2,1,4.4|
2,3,2|
2,4,5.1|
3,0,0.054|
3,1,4.4|
3,2,4|
3,4,8.7|
4,0,9.7|
4,1,1|
4,2,3.4|
4,3,3.4|
];
constraint_x10_x7=[
0,1,9|
0,2,6|
0,3,3|
0,4,7.1|
1,0,7.8|
1,2,4.8|
1,3,1|
1,4,0.23|
2,0,3.7|
2,1,6|
2,3,2.8|
2,4,9.2|
3,0,4|
3,1,0.92|
3,2,3|
3,4,3.5|
4,0,8|
4,1,8.7|
4,2,5.2|
4,3,4.3|
];
constraint_x10_x8=[
0,1,1.7|
0,2,1.5|
0,3,5.4|
0,4,9.8|
1,0,9.8|
1,2,10|
1,3,6.2|
1,4,4.8|
2,0,5.8|
2,1,5.4|
2,3,9.9|
2,4,0.69|
3,0,0.69|
3,1,2.7|
3,2,9.2|
3,4,1.4|
4,0,9.1|
4,1,0.73|
4,2,2.4|
4,3,6.1|
];
constraint_x10_x9=[
0,1,0.16|
0,2,7.3|
0,3,9.5|
0,4,0.69|
1,0,6.7|
1,2,4|
1,3,8.9|
1,4,8|
2,0,6.4|
2,1,6|
2,3,4.3|
2,4,6.7|
3,0,4.1|
3,1,9.8|
3,2,0.52|
3,4,3.6|
4,0,4.4|
4,1,1.4|
4,2,9.6|
4,3,6.2|
];
constraint_x11_x1=[
0,1,3.2|
0,2,9.1|
0,3,5.9|
0,4,3.3|
1,0,4.8|
1,2,9.3|
1,3,4.4|
1,4,5.5|
2,0,7.1|
2,1,7.1|
2,3,1.4|
2,4,7.7|
3,0,2.6|
3,1,1.2|
3,2,2.6|
3,4,1.3|
4,0,8.8|
4,1,9.6|
4,2,8.9|
4,3,9.9|
];
constraint_x11_x2=[
0,1,9.3|
0,2,6.2|
0,3,5.7|
0,4,9.8|
1,0,5.9|
1,2,1.5|
1,3,8.8|
1,4,8.9|
2,0,4.3|
2,1,1.5|
2,3,4.8|
2,4,8.1|
3,0,1.8|
3,1,7.9|
3,2,2.2|
3,4,7.6|
4,0,0.74|
4,1,10|
4,2,9.1|
4,3,6.6|
];
constraint_x11_x5=[
0,1,2.3|
0,2,6.8|
0,3,6.4|
0,4,7|
1,0,9.7|
1,2,3.8|
1,3,1.7|
1,4,9.8|
2,0,0.58|
2,1,9.7|
2,3,5.5|
2,4,3|
3,0,2.2|
3,1,1.4|
3,2,2.4|
3,4,9.8|
4,0,3.2|
4,1,5.5|
4,2,1.9|
4,3,3.6|
];
constraint_x11_x8=[
0,1,9.5|
0,2,8.3|
0,3,2.7|
0,4,7.7|
1,0,0.83|
1,2,2.1|
1,3,3.8|
1,4,8.6|
2,0,5.3|
2,1,9.8|
2,3,8|
2,4,8.4|
3,0,7.8|
3,1,4.5|
3,2,7.3|
3,4,2.1|
4,0,5.9|
4,1,0.13|
4,2,7.5|
4,3,1.5|
];
constraint_x11_x10=[
0,1,5.7|
0,2,5|
0,3,7.4|
0,4,1.4|
1,0,8.7|
1,2,6|
1,3,0.11|
1,4,3.6|
2,0,0.72|
2,1,5.4|
2,3,2.8|
2,4,9.8|
3,0,0.027|
3,1,3.6|
3,2,9.3|
3,4,6.9|
4,0,0.93|
4,1,5.9|
4,2,3.1|
4,3,4.4|
];
constraint_x12_x1=[
0,1,8|
0,2,5.4|
0,3,2.4|
0,4,3.2|
1,0,9|
1,2,7.7|
1,3,9|
1,4,8.3|
2,0,0.8|
2,1,7.3|
2,3,3.7|
2,4,0.14|
3,0,1.5|
3,1,5.1|
3,2,7.4|
3,4,5.1|
4,0,4.7|
4,1,3.2|
4,2,8.1|
4,3,7.7|
];
constraint_x12_x3=[
0,1,0.069|
0,2,1.2|
0,3,3.8|
0,4,2.8|
1,0,2.6|
1,2,4.6|
1,3,8.5|
1,4,6.4|
2,0,4.4|
2,1,3.9|
2,3,1.4|
2,4,2.2|
3,0,1.2|
3,1,4.5|
3,2,4.9|
3,4,1.3|
4,0,7.5|
4,1,9.6|
4,2,6.3|
4,3,4.6|
];
constraint_x12_x4=[
0,1,8.1|
0,2,7.2|
0,3,6.8|
0,4,5.7|
1,0,7.1|
1,2,0.03|
1,3,0.2|
1,4,2.7|
2,0,7.2|
2,1,8.6|
2,3,3|
2,4,0.47|
3,0,6.4|
3,1,1.5|
3,2,9.6|
3,4,3.3|
4,0,8|
4,1,9.9|
4,2,7.4|
4,3,0.21|
];
constraint_x12_x5=[
0,1,4.4|
0,2,9.6|
0,3,7.6|
0,4,2.6|
1,0,8.4|
1,2,7.6|
1,3,4.9|
1,4,6.4|
2,0,0.81|
2,1,7.9|
2,3,6.3|
2,4,8.6|
3,0,2.5|
3,1,2.7|
3,2,6.1|
3,4,7.8|
4,0,1.5|
4,1,6.3|
4,2,6.9|
4,3,4.7|
];
constraint_x12_x7=[
0,1,6.2|
0,2,6.8|
0,3,9.2|
0,4,3.9|
1,0,7.6|
1,2,2|
1,3,0.64|
1,4,8.6|
2,0,6.2|
2,1,8.7|
2,3,5.9|
2,4,8.4|
3,0,2|
3,1,2.6|
3,2,0.24|
3,4,8.1|
4,0,4.8|
4,1,5.2|
4,2,0.59|
4,3,2.5|
];
constraint_x12_x11=[
0,1,3.5|
0,2,0.49|
0,3,4.2|
0,4,9.7|
1,0,2.3|
1,2,8.6|
1,3,1.4|
1,4,3.9|
2,0,0.45|
2,1,0.18|
2,3,6.1|
2,4,1.8|
3,0,2.4|
3,1,1.8|
3,2,6.2|
3,4,2.3|
4,0,4.2|
4,1,0.11|
4,2,6.5|
4,3,4.1|
];
constraint_x13_x1=[
0,1,5.3|
0,2,9.7|
0,3,1.8|
0,4,5.4|
1,0,4.3|
1,2,3.5|
1,3,7.7|
1,4,5.7|
2,0,6.8|
2,1,8.8|
2,3,4.3|
2,4,6.1|
3,0,6.1|
3,1,3.2|
3,2,1.6|
3,4,2.9|
4,0,0.64|
4,1,0.44|
4,2,7.3|
4,3,1.7|
];
constraint_x13_x3=[
0,1,6.6|
0,2,8.3|
0,3,1.5|
0,4,8.7|
1,0,3.6|
1,2,5|
1,3,8.7|
1,4,9.2|
2,0,7.9|
2,1,8.6|
2,3,3.4|
2,4,6.3|
3,0,6.9|
3,1,2.2|
3,2,5.2|
3,4,6.4|
4,0,8|
4,1,6.4|
4,2,1.5|
4,3,2.5|
];
constraint_x13_x4=[
0,1,2.2|
0,2,7.7|
0,3,2|
0,4,0.17|
1,0,9.4|
1,2,1.6|
1,3,7.2|
1,4,9|
2,0,6.6|
2,1,4.8|
2,3,5.4|
2,4,6.4|
3,0,7.3|
3,1,3.2|
3,2,8.4|
3,4,3.7|
4,0,3.1|
4,1,3.6|
4,2,5.7|
4,3,2.5|
];
constraint_x13_x8=[
0,1,9.3|
0,2,1.8|
0,3,9.7|
0,4,4.4|
1,0,2.7|
1,2,4.8|
1,3,7.6|
1,4,1.5|
2,0,4.5|
2,1,7.3|
2,3,0.025|
2,4,9.5|
3,0,5.2|
3,1,2.1|
3,2,2.7|
3,4,3.2|
4,0,0.042|
4,1,7|
4,2,8.4|
4,3,4.6|
];
constraint_x13_x9=[
0,1,4.3|
0,2,4|
0,3,2.3|
0,4,7.1|
1,0,8.6|
1,2,2.4|
1,3,0.55|
1,4,1.7|
2,0,5.6|
2,1,5.5|
2,3,1.4|
2,4,9.1|
3,0,0.49|
3,1,5|
3,2,4.7|
3,4,4|
4,0,3.1|
4,1,3|
4,2,9.1|
4,3,9|
];
constraint_x13_x10=[
0,1,5.8|
0,2,1.7|
0,3,5.4|
0,4,8.5|
1,0,2.7|
1,2,2.5|
1,3,7.2|
1,4,7.2|
2,0,5.5|
2,1,0.69|
2,3,9.8|
2,4,1.7|
3,0,5.4|
3,1,1.5|
3,2,8.2|
3,4,9|
4,0,7.1|
4,1,6.2|
4,2,8.1|
4,3,1.3|
];
constraint_x13_x11=[
0,1,7.3|
0,2,5|
0,3,6.7|
0,4,9|
1,0,1.7|
1,2,2.9|
1,3,7.8|
1,4,9.3|
2,0,9.7|
2,1,0.73|
2,3,2.5|
2,4,7.3|
3,0,4.2|
3,1,2.4|
3,2,0.57|
3,4,5.5|
4,0,5|
4,1,8|
4,2,9.7|
4,3,1.1|
];
constraint_x13_x12=[
0,1,1.9|
0,2,6.8|
0,3,1.5|
0,4,3.3|
1,0,6.3|
1,2,4.5|
1,3,0.09|
1,4,9.8|
2,0,1.7|
2,1,7.8|
2,3,7|
2,4,0.12|
3,0,4.3|
3,1,2.3|
3,2,6.3|
3,4,5.3|
4,0,7.2|
4,1,7.8|
4,2,1.5|
4,3,2.8|
];
constraint_x14_x1=[
0,1,2.1|
0,2,8.7|
0,3,8.7|
0,4,7.1|
1,0,9.2|
1,2,5.7|
1,3,3.5|
1,4,9.2|
2,0,3.6|
2,1,9|
2,3,4.4|
2,4,2.6|
3,0,3.5|
3,1,1.9|
3,2,5.8|
3,4,2.5|
4,0,2.1|
4,1,5.5|
4,2,0.88|
4,3,5.6|
];
constraint_x14_x6=[
0,1,0.11|
0,2,2.2|
0,3,2.1|
0,4,6.4|
1,0,6.8|
1,2,1.7|
1,3,1.3|
1,4,5.4|
2,0,7.1|
2,1,2.8|
2,3,8.1|
2,4,2.4|
3,0,0.77|
3,1,2.9|
3,2,7.3|
3,4,6.7|
4,0,4.2|
4,1,5.1|
4,2,2.7|
4,3,2.4|
];
constraint_x14_x12=[
0,1,7.3|
0,2,0.016|
0,3,7.6|
0,4,6.1|
1,0,2.7|
1,2,7.6|
1,3,3.9|
1,4,6|
2,0,1.3|
2,1,0.36|
2,3,8.4|
2,4,5.7|
3,0,1.2|
3,1,9|
3,2,0.87|
3,4,2.2|
4,0,8.4|
4,1,8.8|
4,2,9.4|
4,3,6.3|
];
constraint_x1_y1=[
0,0,5.2|
0,1,2.7|
0,2,9.2|
0,3,6.2|
0,4,5.6|
1,0,5.3|
1,1,4.9|
1,2,6.2|
1,3,7.9|
1,4,6.7|
2,0,2|
2,1,1.4|
2,2,7.3|
2,3,6.1|
2,4,1.4|
3,0,8.5|
3,1,3.9|
3,2,7.5|
3,3,2.8|
3,4,8.3|
4,0,6.4|
4,1,1.3|
4,2,6.8|
4,3,5.4|
4,4,4|
];
constraint_x2_y2=[
0,0,7.5|
0,1,2.4|
0,2,0.29|
0,3,5|
0,4,5.4|
1,0,2.4|
1,1,7.9|
1,2,8.3|
1,3,1.1|
1,4,2.8|
2,0,6.9|
2,1,7.6|
2,2,3.8|
2,3,7.1|
2,4,6.4|
3,0,5.7|
3,1,3.4|
3,2,0.53|
3,3,6|
3,4,5|
4,0,2|
4,1,3.8|
4,2,6.1|
4,3,8.1|
4,4,6.4|
];
constraint_x3_y3=[
0,0,7.1|
0,1,0.1|
0,2,6.1|
0,3,7.8|
0,4,5.9|
1,0,8.7|
1,1,4.5|
1,2,8.2|
1,3,1|
1,4,3.6|
2,0,3.7|
2,1,8.8|
2,2,5.9|
2,3,0.99|
2,4,4.7|
3,0,7.3|
3,1,5.3|
3,2,1.8|
3,3,7.8|
3,4,2.9|
4,0,7.4|
4,1,2.2|
4,2,6.5|
4,3,1.5|
4,4,1|
];
constraint_x4_y4=[
0,0,0.68|
0,1,0.33|
0,2,8.4|
0,3,0.45|
0,4,5.5|
1,0,3.7|
1,1,1.2|
1,2,6.3|
1,3,6.2|
1,4,9|
2,0,1.3|
2,1,0.91|
2,2,0.51|
2,3,0.5|
2,4,9.5|
3,0,8.8|
3,1,1.8|
3,2,6.1|
3,3,9|
3,4,6.3|
4,0,8.9|
4,1,6.3|
4,2,1.7|
4,3,8.9|
4,4,5.5|
];
constraint_x5_y5=[
0,0,1.6|
0,1,9.6|
0,2,7.1|
0,3,2.3|
0,4,7.1|
1,0,6.4|
1,1,3|
1,2,6.7|
1,3,9.6|
1,4,3.7|
2,0,6.1|
2,1,1.2|
2,2,3.9|
2,3,5.6|
2,4,8|
3,0,9.2|
3,1,1.3|
3,2,1.1|
3,3,2.7|
3,4,4.4|
4,0,5.3|
4,1,0.014|
4,2,7.9|
4,3,6.3|
4,4,5.3|
];
constraint_x6_y6=[
0,0,6|
0,1,5.4|
0,2,6.2|
0,3,6.8|
0,4,7.2|
1,0,6.3|
1,1,0.93|
1,2,9.6|
1,3,2.8|
1,4,6.2|
2,0,1.5|
2,1,4.5|
2,2,1.2|
2,3,0.08|
2,4,1.7|
3,0,5.1|
3,1,8.1|
3,2,7.7|
3,3,1.7|
3,4,8.1|
4,0,9.9|
4,1,5.3|
4,2,5.8|
4,3,7.8|
4,4,8.8|
];
constraint_x7_y7=[
0,0,8.4|
0,1,9.3|
0,2,2.7|
0,3,10|
0,4,7.3|
1,0,2.6|
1,1,7.9|
1,2,6.5|
1,3,8.5|
1,4,0.25|
2,0,7.7|
2,1,8.1|
2,2,2.2|
2,3,6.4|
2,4,2.3|
3,0,2.8|
3,1,8|
3,2,1.3|
3,3,5.7|
3,4,8.6|
4,0,2.1|
4,1,0.41|
4,2,8.6|
4,3,0.19|
4,4,2|
];
initial_distribution_y1=[0.2,0.12,0.28,0.26,0.13];
initial_distribution_y2=[0.05,0.33,0.32,0.22,0.073];
initial_distribution_y3=[0.22,0.095,0.24,0.23,0.22];
initial_distribution_y4=[0.23,0.23,0.03,0.3,0.21];
initial_distribution_y5=[0.14,0.16,0.27,0.23,0.19];
initial_distribution_y6=[0.24,0.12,0.2,0.063,0.38];
initial_distribution_y7=[0.24,0.28,0.15,0.18,0.15];
transition_y1=[
0.031,0.4,0.087,0.1,0.38|
0.59,0.3,0.051,0.032,0.026|
0.3,0.06,0.28,0.091,0.27|
0.013,0.24,0.29,0.35,0.11|
0.27,0.13,0.22,0.24,0.14|
];
transition_y2=[
0.18,0.16,0.24,0.17,0.25|
0.14,0.41,0.15,0.29,0.014|
0.27,0.24,0.25,0.036,0.2|
0.2,0.23,0.2,0.043,0.32|
0.22,0.28,0.17,0.28,0.038|
];
transition_y3=[
0.009,0.13,0.38,0.19,0.29|
0.097,0.14,0.064,0.53,0.17|
0.021,0.08,0.27,0.29,0.34|
0.24,0.22,0.13,0.22,0.2|
0.35,0.26,0.21,0.069,0.11|
];
transition_y4=[
0.15,0.31,0.088,0.14,0.31|
0.23,0.2,0.36,0.13,0.071|
0.085,0.45,0.21,0.2,0.058|
0.34,0.039,0.065,0.25,0.31|
0.28,0.24,0.11,0.083,0.28|
];
transition_y5=[
0.082,0.33,0.095,0.17,0.32|
0.082,0.33,0.19,0.29,0.1|
0.24,0.31,0.29,0.076,0.09|
0.2,0.25,0.058,0.26,0.23|
0.33,0.39,0.084,0.044,0.15|
];
transition_y6=[
0.27,0.17,0.23,0.18,0.14|
0.14,0.17,0.078,0.3,0.3|
0.32,0.094,0.31,0.21,0.063|
0.073,0.34,0.092,0.34,0.16|
0.016,0.29,0.15,0.24,0.3|
];
transition_y7=[
0.35,0.22,0.17,0.082,0.17|
0.22,0.2,0.13,0.13,0.31|
0.036,0.29,0.17,0.19,0.31|
0.078,0.32,0.23,0.22,0.16|
0.087,0.23,0.24,0.14,0.31|
];
